NAME: ch150
TYPE: TSP
COMMENT: 150 city Problem (churritz)
DIMENSION: 150
EDGE_WEIGHT_TYPE: EUC_2D
NODE_COORD_SECTION
1 23.13366377 -82.37866321 0
2 23.11779549 -82.37530662 3
3 23.12616853 -82.40682857 5  
4 23.13424049 -82.36762437 4
5 23.08805186 -82.37964925 8
6 23.04797093 -82.36181186 6 
7 23.09642123 -82.35004654 1
8 23.12146334 -82.37953162 7 
9 23.09808869 -82.35806208 3
10 23.10730613 -82.36562921 4 
11 23.07200338 -82.39101364 1
12 23.06233965 -82.39352418 6 
13 23.06124195 -82.44990091 7 
14 23.04719695 -82.46413116 3 
15 23.09403291 -82.45969428 1
16 23.10922716 -82.35838221 2
EOF